Minimize
  - 22 y_0 - 13 y_1 - 18 y_2 - 23 y_3 - 24 y_4 - y_5 - 13 y_6 - 24 y_7
   - 4 y_8 - 22 y_9 - 27 y_10 - 30 y_11 - 8 y_12 - 21 y_13 - 25 y_14
   - 13 y_15 - 20 y_16 - 20 y_17 - 30 y_18 - 20 y_19 - 23 y_20 - 17 y_21
   - 24 y_22 - 28 y_24 - 16 y_25 - 2 y_26 - 30 y_27 - 25 y_28 - 26 y_29
   - 24 y_30 - 7 y_31 - 24 y_32 - 12 y_33 - 14 y_34 - 21 y_35 - 14 y_36
   - 29 y_37 - 3 y_38 - 17 y_39 - 23 y_40 - 18 y_41 - 16 y_42 - 30 y_43
   - 29 y_44 - 19 y_45 - 5 y_46 - 17 y_47 - 7 y_48 - 20 y_49 + 52 x_0_2
   + 58 x_0_3 + 87 x_0_5 + 45 x_0_7 + 14 x_0_9 + 55 x_0_13 + 78 x_0_15
   + 35 x_0_17 + 48 x_0_18 + 92 x_0_19 + 3 x_0_20 + 88 x_0_21 + 18 x_0_22
   + 90 x_0_23 + 41 x_0_24 + 86 x_0_26 + 55 x_0_27 + 74 x_0_31 + 16 x_0_32
   + 50 x_0_33 + 34 x_0_34 + 31 x_0_35 + 45 x_0_37 + 79 x_0_38 + 26 x_0_39
   + 24 x_0_42 + 82 x_0_46 + 71 x_0_48 + 25 x_1_2 + 43 x_1_3 + 45 x_1_4
   + 48 x_1_5 + 53 x_1_7 + 74 x_1_11 + 64 x_1_14 + 12 x_1_15 + 38 x_1_17
   + 77 x_1_18 + 35 x_1_19 + 51 x_1_23 + 74 x_1_27 + 65 x_1_28 + 53 x_1_29
   + 52 x_1_30 + 22 x_1_31 + 81 x_1_32 + 21 x_1_33 + 47 x_1_35 + 51 x_1_36
   + 72 x_1_37 + 48 x_1_40 + 22 x_1_41 + 75 x_1_43 + 67 x_1_44 + 62 x_1_45
   + 32 x_1_46 + 20 x_2_3 + 36 x_2_4 + 29 x_2_6 + 57 x_2_8 + 38 x_2_9
   + 53 x_2_10 + 50 x_2_11 + 12 x_2_13 + 44 x_2_14 + 33 x_2_15 + 19 x_2_16
   + 17 x_2_17 + 52 x_2_18 + 40 x_2_19 + 38 x_2_21 + 72 x_2_23 + 49 x_2_24
   + 20 x_2_25 + 49 x_2_27 + 43 x_2_28 + 36 x_2_29 + 44 x_2_31 + 67 x_2_32
   + 41 x_2_34 + 64 x_2_38 + 27 x_2_41 + 40 x_2_42 + 44 x_2_44 + 52 x_2_45
   + 34 x_2_47 + 45 x_2_48 + 11 x_2_49 + 28 x_3_4 + 18 x_3_7 + 44 x_3_9
   + 50 x_3_10 + 75 x_3_12 + 9 x_3_13 + 43 x_3_14 + 20 x_3_16 + 25 x_3_17
   + 40 x_3_18 + 43 x_3_19 + 59 x_3_20 + 92 x_3_23 + 39 x_3_24 + 37 x_3_25
   + 85 x_3_26 + 40 x_3_28 + 18 x_3_29 + 19 x_3_30 + 74 x_3_32 + 48 x_3_33
   + 58 x_3_34 + 36 x_3_37 + 85 x_3_38 + 66 x_3_39 + 14 x_3_40 + 35 x_3_41
   + 54 x_3_42 + 34 x_3_43 + 24 x_3_44 + 74 x_3_46 + 65 x_3_48 + 15 x_3_49
   + 93 x_4_5 + 44 x_4_6 + 50 x_4_11 + 88 x_4_12 + 30 x_4_13 + 71 x_4_14
   + 18 x_4_16 + 50 x_4_17 + 86 x_4_20 + 31 x_4_21 + 103 x_4_22 + 96 x_4_23
   + 65 x_4_24 + 57 x_4_25 + 88 x_4_26 + 57 x_4_27 + 68 x_4_28 + 101 x_4_32
   + 77 x_4_34 + 54 x_4_35 + 86 x_4_36 + 62 x_4_37 + 91 x_4_38 + 88 x_4_39
   + 42 x_4_40 + 76 x_4_42 + 56 x_4_43 + 41 x_4_44 + 88 x_4_45 + 76 x_4_46
   + 70 x_4_48 + 25 x_4_49 + 49 x_5_6 + 12 x_5_8 + 84 x_5_9 + 119 x_5_11
   + 32 x_5_12 + 80 x_5_13 + 95 x_5_14 + 49 x_5_15 + 77 x_5_16 + 116 x_5_18
   + 78 x_5_19 + 90 x_5_20 + 94 x_5_22 + 3 x_5_23 + 111 x_5_24 + 5 x_5_26
   + 116 x_5_27 + 98 x_5_28 + 26 x_5_31 + 43 x_5_33 + 53 x_5_34 + 54 x_5_36
   + 9 x_5_38 + 64 x_5_39 + 91 x_5_40 + 68 x_5_41 + 63 x_5_42 + 118 x_5_43
   + 113 x_5_44 + 74 x_5_45 + 17 x_5_46 + 66 x_5_47 + 24 x_5_48 + 38 x_6_8
   + 62 x_6_9 + 77 x_6_11 + 50 x_6_12 + 70 x_6_14 + 29 x_6_16 + 44 x_6_17
   + 81 x_6_18 + 31 x_6_19 + 21 x_6_21 + 89 x_6_22 + 52 x_6_23 + 37 x_6_25
   + 78 x_6_27 + 71 x_6_28 + 53 x_6_29 + 56 x_6_30 + 23 x_6_31 + 87 x_6_32
   + 49 x_6_34 + 52 x_6_35 + 57 x_6_36 + 48 x_6_38 + 54 x_6_42 + 79 x_6_43
   + 70 x_6_44 + 68 x_6_45 + 32 x_6_46 + 19 x_6_47 + 27 x_6_48 + 31 x_6_49
   + 33 x_7_10 + 21 x_7_13 + 61 x_7_15 + 37 x_7_16 + 62 x_7_21 + 63 x_7_22
   + 22 x_7_24 + 92 x_7_26 + 21 x_7_27 + 23 x_7_28 + 32 x_7_29 + 4 x_7_30
   + 61 x_7_32 + 52 x_7_33 + 54 x_7_34 + 17 x_7_35 + 20 x_7_37 + 59 x_7_39
   + 5 x_7_40 + 51 x_7_41 + 48 x_7_42 + 22 x_7_44 + 82 x_7_46 + 58 x_7_47
   + 71 x_7_48 + 29 x_7_49 + 72 x_8_9 + 95 x_8_10 + 107 x_8_11 + 25 x_8_12
   + 68 x_8_13 + 84 x_8_14 + 66 x_8_16 + 63 x_8_17 + 104 x_8_18 + 68 x_8_19
   + 80 x_8_20 + 57 x_8_21 + 86 x_8_22 + 99 x_8_24 + 48 x_8_25 + 104 x_8_27
   + 87 x_8_28 + 89 x_8_29 + 80 x_8_30 + 15 x_8_31 + 86 x_8_32 + 43 x_8_34
   + 71 x_8_35 + 100 x_8_37 + 10 x_8_38 + 56 x_8_39 + 79 x_8_40 + 57 x_8_41
   + 53 x_8_42 + 106 x_8_43 + 100 x_8_44 + 65 x_8_45 + 56 x_8_47
   + 12 x_8_48 + 64 x_8_49 + 22 x_9_10 + 53 x_9_11 + 12 x_9_14 + 67 x_9_15
   + 21 x_9_17 + 78 x_9_19 + 16 x_9_20 + 86 x_9_23 + 33 x_9_24 + 27 x_9_25
   + 82 x_9_26 + 17 x_9_28 + 61 x_9_29 + 27 x_9_30 + 67 x_9_31 + 43 x_9_33
   + 38 x_9_36 + 36 x_9_37 + 76 x_9_38 + 31 x_9_39 + 31 x_9_40 + 65 x_9_41
   + 47 x_9_43 + 23 x_9_45 + 76 x_9_46 + 64 x_9_48 + 47 x_9_49 + 78 x_10_12
   + 11 x_10_14 + 86 x_10_15 + 67 x_10_16 + 37 x_10_17 + 25 x_10_18
   + 91 x_10_19 + 23 x_10_20 + 91 x_10_21 + 109 x_10_23 + 19 x_10_24
   + 48 x_10_25 + 104 x_10_26 + 31 x_10_30 + 88 x_10_31 + 55 x_10_34
   + 29 x_10_35 + 59 x_10_36 + 98 x_10_38 + 36 x_10_40 + 45 x_10_42
   + 37 x_10_43 + 48 x_10_44 + 41 x_10_45 + 98 x_10_46 + 87 x_10_47
   + 86 x_10_48 + 100 x_11_12 + 40 x_11_13 + 45 x_11_14 + 81 x_11_15
   + 51 x_11_16 + 22 x_11_18 + 65 x_11_20 + 76 x_11_21 + 82 x_11_22
   + 122 x_11_23 + 115 x_11_26 + 12 x_11_27 + 33 x_11_29 + 29 x_11_30
   + 95 x_11_31 + 76 x_11_33 + 42 x_11_35 + 87 x_11_36 + 114 x_11_38
   + 83 x_11_39 + 29 x_11_40 + 66 x_11_41 + 77 x_11_45 + 105 x_11_46
   + 73 x_11_47 + 95 x_11_48 + 47 x_11_49 + 66 x_12_13 + 53 x_12_15
   + 70 x_12_16 + 54 x_12_17 + 93 x_12_18 + 71 x_12_21 + 63 x_12_22
   + 34 x_12_23 + 87 x_12_24 + 39 x_12_25 + 33 x_12_26 + 95 x_12_27
   + 72 x_12_28 + 90 x_12_29 + 72 x_12_30 + 63 x_12_32 + 27 x_12_33
   + 22 x_12_36 + 89 x_12_37 + 23 x_12_38 + 33 x_12_39 + 72 x_12_40
   + 67 x_12_41 + 34 x_12_42 + 97 x_12_43 + 96 x_12_44 + 43 x_12_45
   + 35 x_12_46 + 68 x_12_47 + 27 x_12_48 + 65 x_12_49 + 43 x_13_14
   + 41 x_13_15 + 20 x_13_17 + 45 x_13_18 + 40 x_13_19 + 41 x_13_21
   + 73 x_13_22 + 83 x_13_23 + 42 x_13_24 + 30 x_13_25 + 76 x_13_26
   + 40 x_13_27 + 40 x_13_28 + 25 x_13_29 + 21 x_13_30 + 55 x_13_31
   + 71 x_13_32 + 40 x_13_33 + 50 x_13_34 + 24 x_13_35 + 40 x_13_37
   + 60 x_13_39 + 47 x_13_42 + 33 x_13_44 + 9 x_13_49 + 75 x_14_15
   + 59 x_14_16 + 26 x_14_17 + 28 x_14_18 + 83 x_14_19 + 81 x_14_21
   + 37 x_14_22 + 98 x_14_23 + 22 x_14_24 + 37 x_14_25 + 35 x_14_27
   + 6 x_14_28 + 60 x_14_29 + 77 x_14_31 + 34 x_14_32 + 53 x_14_33
   + 45 x_14_34 + 19 x_14_35 + 49 x_14_36 + 88 x_14_38 + 42 x_14_39
   + 29 x_14_40 + 35 x_14_42 + 38 x_14_43 + 46 x_14_44 + 34 x_14_45
   + 87 x_14_46 + 77 x_14_47 + 31 x_15_16 + 49 x_15_17 + 85 x_15_18
   + 81 x_15_20 + 82 x_15_24 + 44 x_15_26 + 75 x_15_28 + 55 x_15_29
   + 60 x_15_30 + 24 x_15_31 + 92 x_15_32 + 54 x_15_34 + 57 x_15_35
   + 61 x_15_36 + 81 x_15_37 + 49 x_15_38 + 68 x_15_39 + 59 x_15_42
   + 73 x_15_44 + 73 x_15_45 + 32 x_15_46 + 17 x_15_47 + 28 x_15_48
   + 34 x_15_49 + 35 x_16_17 + 24 x_16_19 + 72 x_16_20 + 26 x_16_21
   + 80 x_16_23 + 73 x_16_26 + 54 x_16_27 + 24 x_16_29 + 37 x_16_30
   + 51 x_16_31 + 86 x_16_32 + 43 x_16_33 + 59 x_16_34 + 40 x_16_35
   + 75 x_16_38 + 71 x_16_39 + 15 x_16_41 + 59 x_16_42 + 54 x_16_43
   + 42 x_16_44 + 71 x_16_45 + 61 x_16_46 + 53 x_16_48 + 9 x_16_49
   + 55 x_17_21 + 53 x_17_22 + 78 x_17_23 + 41 x_17_27 + 26 x_17_28
   + 17 x_17_30 + 54 x_17_31 + 51 x_17_32 + 32 x_17_33 + 8 x_17_35
   + 43 x_17_36 + 69 x_17_38 + 41 x_17_39 + 18 x_17_40 + 44 x_17_41
   + 29 x_17_42 + 43 x_17_43 + 42 x_17_44 + 38 x_17_45 + 64 x_17_46
   + 51 x_17_47 + 53 x_17_48 + 26 x_17_49 + 83 x_18_19 + 47 x_18_20
   + 85 x_18_21 + 119 x_18_23 + 56 x_18_25 + 10 x_18_27 + 23 x_18_28
   + 49 x_18_29 + 25 x_18_30 + 94 x_18_31 + 73 x_18_33 + 70 x_18_34
   + 76 x_18_36 + 5 x_18_37 + 110 x_18_38 + 29 x_18_40 + 74 x_18_41
   + 61 x_18_42 + 62 x_18_45 + 105 x_18_46 + 94 x_19_20 + 80 x_19_23
   + 58 x_19_25 + 73 x_19_26 + 39 x_19_29 + 61 x_19_30 + 53 x_19_31
   + 108 x_19_32 + 56 x_19_33 + 75 x_19_34 + 84 x_19_36 + 79 x_19_37
   + 78 x_19_38 + 89 x_19_39 + 78 x_19_42 + 76 x_19_43 + 62 x_19_44
   + 91 x_19_45 + 32 x_19_49 + 40 x_20_24 + 40 x_20_25 + 54 x_20_27
   + 77 x_20_31 + 15 x_20_32 + 53 x_20_33 + 38 x_20_34 + 39 x_20_36
   + 46 x_20_40 + 81 x_20_41 + 57 x_20_43 + 66 x_20_44 + 74 x_20_48
   + 83 x_21_24 + 61 x_21_26 + 79 x_21_27 + 80 x_21_28 + 46 x_21_29
   + 43 x_21_31 + 68 x_21_34 + 62 x_21_35 + 77 x_21_36 + 81 x_21_37
   + 67 x_21_38 + 82 x_21_39 + 57 x_21_40 + 11 x_21_41 + 72 x_21_42
   + 80 x_21_43 + 68 x_21_44 + 86 x_21_45 + 49 x_21_46 + 4 x_21_47
   + 46 x_21_48 + 32 x_21_49 + 97 x_22_23 + 56 x_22_24 + 95 x_22_26
   + 71 x_22_27 + 42 x_22_28 + 94 x_22_29 + 2 x_22_32 + 63 x_22_33
   + 43 x_22_34 + 49 x_22_35 + 95 x_22_41 + 35 x_22_42 + 74 x_22_43
   + 83 x_22_44 + 21 x_22_45 + 101 x_22_47 + 82 x_22_48 + 79 x_22_49
   + 114 x_23_24 + 8 x_23_26 + 119 x_23_27 + 104 x_23_29 + 95 x_23_30
   + 29 x_23_31 + 96 x_23_32 + 46 x_23_33 + 86 x_23_35 + 56 x_23_36
   + 11 x_23_38 + 67 x_23_39 + 94 x_23_40 + 66 x_23_42 + 76 x_23_45
   + 20 x_23_46 + 68 x_23_47 + 27 x_23_48 + 79 x_23_49 + 51 x_24_25
   + 15 x_24_27 + 16 x_24_28 + 50 x_24_29 + 90 x_24_31 + 67 x_24_33
   + 64 x_24_34 + 28 x_24_35 + 70 x_24_36 + 5 x_24_37 + 104 x_24_38
   + 63 x_24_39 + 26 x_24_40 + 55 x_24_42 + 18 x_24_43 + 55 x_24_45
   + 80 x_24_47 + 51 x_24_49 + 39 x_25_28 + 55 x_25_29 + 33 x_25_30
   + 40 x_25_31 + 51 x_25_32 + 21 x_25_34 + 23 x_25_35 + 30 x_25_36
   + 52 x_25_37 + 32 x_25_39 + 44 x_25_41 + 20 x_25_42 + 59 x_25_43
   + 57 x_25_44 + 33 x_25_45 + 50 x_25_46 + 49 x_25_47 + 38 x_25_48
   + 31 x_25_49 + 113 x_26_27 + 96 x_26_28 + 21 x_26_31 + 94 x_26_32
   + 80 x_26_35 + 54 x_26_36 + 109 x_26_37 + 12 x_26_38 + 65 x_26_39
   + 63 x_26_41 + 115 x_26_43 + 74 x_26_45 + 61 x_26_47 + 71 x_26_49
   + 29 x_27_28 + 24 x_27_30 + 68 x_27_32 + 73 x_27_34 + 35 x_27_35
   + 10 x_27_37 + 110 x_27_38 + 75 x_27_39 + 65 x_27_42 + 3 x_27_43
   + 68 x_27_45 + 103 x_27_46 + 76 x_27_47 + 92 x_27_48 + 48 x_27_49
   + 55 x_28_29 + 21 x_28_30 + 40 x_28_32 + 56 x_28_33 + 49 x_28_34
   + 18 x_28_35 + 54 x_28_36 + 91 x_28_38 + 47 x_28_39 + 26 x_28_40
   + 39 x_28_42 + 32 x_28_43 + 41 x_28_44 + 39 x_28_45 + 76 x_28_47
   + 77 x_28_48 + 48 x_28_49 + 35 x_29_30 + 75 x_29_31 + 92 x_29_32
   + 63 x_29_33 + 75 x_29_34 + 85 x_29_36 + 46 x_29_37 + 98 x_29_38
   + 84 x_29_39 + 38 x_29_41 + 72 x_29_42 + 24 x_29_44 + 82 x_29_45
   + 85 x_29_46 + 44 x_29_47 + 77 x_29_48 + 26 x_29_49 + 70 x_30_31
   + 57 x_30_32 + 49 x_30_33 + 13 x_30_35 + 86 x_30_38 + 55 x_30_39
   + 51 x_30_41 + 44 x_30_42 + 26 x_30_43 + 26 x_30_44 + 50 x_30_45
   + 58 x_30_47 + 69 x_30_48 + 42 x_31_34 + 62 x_31_35 + 47 x_31_36
   + 90 x_31_37 + 57 x_31_39 + 67 x_31_40 + 95 x_31_43 + 5 x_31_48
   + 50 x_31_49 + 62 x_32_33 + 43 x_32_34 + 47 x_32_35 + 41 x_32_36
   + 59 x_32_37 + 85 x_32_38 + 94 x_32_41 + 34 x_32_42 + 72 x_32_43
   + 81 x_32_44 + 21 x_32_45 + 100 x_32_47 + 81 x_32_48 + 22 x_33_34
   + 39 x_33_35 + 29 x_33_36 + 68 x_33_37 + 38 x_33_38 + 36 x_33_39
   + 28 x_33_42 + 71 x_33_44 + 44 x_33_47 + 22 x_33_48 + 38 x_33_49
   + 38 x_34_35 + 9 x_34_36 + 44 x_34_38 + 15 x_34_39 + 52 x_34_40
   + 61 x_34_41 + 10 x_34_42 + 76 x_34_43 + 76 x_34_44 + 49 x_34_46
   + 38 x_34_48 + 52 x_34_49 + 46 x_35_36 + 76 x_35_38 + 42 x_35_39
   + 15 x_35_40 + 51 x_35_41 + 37 x_35_43 + 39 x_35_44 + 38 x_35_45
   + 72 x_35_46 + 58 x_35_47 + 60 x_36_40 + 70 x_36_41 + 15 x_36_42
   + 83 x_36_43 + 84 x_36_44 + 74 x_36_47 + 43 x_36_48 + 61 x_36_49
   + 105 x_37_38 + 66 x_37_39 + 70 x_37_41 + 57 x_37_42 + 13 x_37_43
   + 25 x_37_44 + 59 x_37_45 + 100 x_37_46 + 78 x_37_47 + 89 x_37_48
   + 49 x_37_49 + 55 x_38_39 + 112 x_38_43 + 108 x_38_44 + 65 x_38_45
   + 20 x_38_46 + 66 x_38_47 + 72 x_38_49 + 75 x_39_41 + 12 x_39_42
   + 81 x_39_44 + 10 x_39_45 + 63 x_39_49 + 46 x_40_41 + 46 x_40_42
   + 27 x_40_43 + 24 x_40_44 + 53 x_40_45 + 67 x_40_48 + 25 x_40_49
   + 63 x_41_42 + 69 x_41_43 + 57 x_41_44 + 7 x_41_47 + 45 x_41_48
   + 68 x_42_43 + 15 x_42_45 + 58 x_42_46 + 68 x_42_47 + 51 x_42_49
   + 15 x_43_44 + 71 x_43_45 + 105 x_43_46 + 76 x_43_47 + 76 x_44_45
   + 99 x_44_46 + 64 x_44_47 + 89 x_44_48 + 39 x_44_49 + 82 x_45_47
   + 60 x_45_48 + 63 x_45_49 + 93 x_46_22 + 12 x_46_48 + 60 x_46_49
   + 45 x_47_48 + 29 x_47_49 + 918 Constant
Subject To
 c_0: y_2 = 1
 c_1_0: y_0 >= 1
 c_1_1: y_1 >= 1
 c_1_2: y_2 >= 1
 c_1_3: y_3 >= 1
 c_1_4: y_4 >= 1
 c_1_5: y_5 >= 1
 c_1_6: y_6 >= 1
 c_1_7: y_7 >= 1
 c_1_8: y_8 >= 1
 c_1_9: y_9 >= 1
 c_1_10: y_10 >= 1
 c_1_11: y_11 >= 1
 c_1_12: y_12 >= 1
 c_1_13: y_13 >= 1
 c_1_14: y_14 >= 1
 c_1_15: y_15 >= 1
 c_1_16: y_16 >= 1
 c_1_17: y_17 >= 1
 c_1_18: y_18 >= 1
 c_1_19: y_19 >= 1
 c_1_20: y_20 >= 1
 c_1_21: y_21 >= 1
 c_1_22: y_22 + y_32 >= 1
 c_1_23: y_23 >= 1
 c_1_24: y_24 >= 1
 c_1_25: y_25 >= 1
 c_1_26: y_26 >= 1
 c_1_27: y_27 >= 1
 c_1_28: y_28 >= 1
 c_1_29: y_29 >= 1
 c_1_30: y_30 >= 1
 c_1_31: y_31 >= 1
 c_1_32: y_22 + y_32 >= 1
 c_1_33: y_33 >= 1
 c_1_34: y_34 >= 1
 c_1_35: y_35 >= 1
 c_1_36: y_36 >= 1
 c_1_37: y_37 >= 1
 c_1_38: y_38 >= 1
 c_1_39: y_39 >= 1
 c_1_40: y_40 >= 1
 c_1_41: y_41 >= 1
 c_1_42: y_42 >= 1
 c_1_43: y_43 >= 1
 c_1_44: y_44 >= 1
 c_1_45: y_45 >= 1
 c_1_46: y_46 >= 1
 c_1_47: y_47 >= 1
 c_1_48: y_48 >= 1
 c_1_49: y_49 >= 1
 c_2_0: - 2 y_0 + x_0_2 + x_0_3 + x_0_5 + x_0_7 + x_0_9 + x_0_13 + x_0_15
   + x_0_17 + x_0_18 + x_0_19 + x_0_20 + x_0_21 + x_0_22 + x_0_23 + x_0_24
   + x_0_26 + x_0_27 + x_0_31 + x_0_32 + x_0_33 + x_0_34 + x_0_35 + x_0_37
   + x_0_38 + x_0_39 + x_0_42 + x_0_46 + x_0_48 = 0
 c_2_1: - 2 y_1 + x_1_2 + x_1_3 + x_1_4 + x_1_5 + x_1_7 + x_1_11 + x_1_14
   + x_1_15 + x_1_17 + x_1_18 + x_1_19 + x_1_23 + x_1_27 + x_1_28 + x_1_29
   + x_1_30 + x_1_31 + x_1_32 + x_1_33 + x_1_35 + x_1_36 + x_1_37 + x_1_40
   + x_1_41 + x_1_43 + x_1_44 + x_1_45 + x_1_46 = 0
 c_2_2: - 2 y_2 + x_0_2 + x_1_2 + x_2_3 + x_2_4 + x_2_6 + x_2_8 + x_2_9
   + x_2_10 + x_2_11 + x_2_13 + x_2_14 + x_2_15 + x_2_16 + x_2_17 + x_2_18
   + x_2_19 + x_2_21 + x_2_23 + x_2_24 + x_2_25 + x_2_27 + x_2_28 + x_2_29
   + x_2_31 + x_2_32 + x_2_34 + x_2_38 + x_2_41 + x_2_42 + x_2_44 + x_2_45
   + x_2_47 + x_2_48 + x_2_49 = 0
 c_2_3: - 2 y_3 + x_0_3 + x_1_3 + x_2_3 + x_3_4 + x_3_7 + x_3_9 + x_3_10
   + x_3_12 + x_3_13 + x_3_14 + x_3_16 + x_3_17 + x_3_18 + x_3_19 + x_3_20
   + x_3_23 + x_3_24 + x_3_25 + x_3_26 + x_3_28 + x_3_29 + x_3_30 + x_3_32
   + x_3_33 + x_3_34 + x_3_37 + x_3_38 + x_3_39 + x_3_40 + x_3_41 + x_3_42
   + x_3_43 + x_3_44 + x_3_46 + x_3_48 + x_3_49 = 0
 c_2_4: - 2 y_4 + x_1_4 + x_2_4 + x_3_4 + x_4_5 + x_4_6 + x_4_11 + x_4_12
   + x_4_13 + x_4_14 + x_4_16 + x_4_17 + x_4_20 + x_4_21 + x_4_22 + x_4_23
   + x_4_24 + x_4_25 + x_4_26 + x_4_27 + x_4_28 + x_4_32 + x_4_34 + x_4_35
   + x_4_36 + x_4_37 + x_4_38 + x_4_39 + x_4_40 + x_4_42 + x_4_43 + x_4_44
   + x_4_45 + x_4_46 + x_4_48 + x_4_49 = 0
 c_2_5: - 2 y_5 + x_0_5 + x_1_5 + x_4_5 + x_5_6 + x_5_8 + x_5_9 + x_5_11
   + x_5_12 + x_5_13 + x_5_14 + x_5_15 + x_5_16 + x_5_18 + x_5_19 + x_5_20
   + x_5_22 + x_5_23 + x_5_24 + x_5_26 + x_5_27 + x_5_28 + x_5_31 + x_5_33
   + x_5_34 + x_5_36 + x_5_38 + x_5_39 + x_5_40 + x_5_41 + x_5_42 + x_5_43
   + x_5_44 + x_5_45 + x_5_46 + x_5_47 + x_5_48 = 0
 c_2_6: - 2 y_6 + x_2_6 + x_4_6 + x_5_6 + x_6_8 + x_6_9 + x_6_11 + x_6_12
   + x_6_14 + x_6_16 + x_6_17 + x_6_18 + x_6_19 + x_6_21 + x_6_22 + x_6_23
   + x_6_25 + x_6_27 + x_6_28 + x_6_29 + x_6_30 + x_6_31 + x_6_32 + x_6_34
   + x_6_35 + x_6_36 + x_6_38 + x_6_42 + x_6_43 + x_6_44 + x_6_45 + x_6_46
   + x_6_47 + x_6_48 + x_6_49 = 0
 c_2_7: - 2 y_7 + x_0_7 + x_1_7 + x_3_7 + x_7_10 + x_7_13 + x_7_15 + x_7_16
   + x_7_21 + x_7_22 + x_7_24 + x_7_26 + x_7_27 + x_7_28 + x_7_29 + x_7_30
   + x_7_32 + x_7_33 + x_7_34 + x_7_35 + x_7_37 + x_7_39 + x_7_40 + x_7_41
   + x_7_42 + x_7_44 + x_7_46 + x_7_47 + x_7_48 + x_7_49 = 0
 c_2_8: - 2 y_8 + x_2_8 + x_5_8 + x_6_8 + x_8_9 + x_8_10 + x_8_11 + x_8_12
   + x_8_13 + x_8_14 + x_8_16 + x_8_17 + x_8_18 + x_8_19 + x_8_20 + x_8_21
   + x_8_22 + x_8_24 + x_8_25 + x_8_27 + x_8_28 + x_8_29 + x_8_30 + x_8_31
   + x_8_32 + x_8_34 + x_8_35 + x_8_37 + x_8_38 + x_8_39 + x_8_40 + x_8_41
   + x_8_42 + x_8_43 + x_8_44 + x_8_45 + x_8_47 + x_8_48 + x_8_49 = 0
 c_2_9: - 2 y_9 + x_0_9 + x_2_9 + x_3_9 + x_5_9 + x_6_9 + x_8_9 + x_9_10
   + x_9_11 + x_9_14 + x_9_15 + x_9_17 + x_9_19 + x_9_20 + x_9_23 + x_9_24
   + x_9_25 + x_9_26 + x_9_28 + x_9_29 + x_9_30 + x_9_31 + x_9_33 + x_9_36
   + x_9_37 + x_9_38 + x_9_39 + x_9_40 + x_9_41 + x_9_43 + x_9_45 + x_9_46
   + x_9_48 + x_9_49 = 0
 c_2_10: - 2 y_10 + x_2_10 + x_3_10 + x_7_10 + x_8_10 + x_9_10 + x_10_12
   + x_10_14 + x_10_15 + x_10_16 + x_10_17 + x_10_18 + x_10_19 + x_10_20
   + x_10_21 + x_10_23 + x_10_24 + x_10_25 + x_10_26 + x_10_30 + x_10_31
   + x_10_34 + x_10_35 + x_10_36 + x_10_38 + x_10_40 + x_10_42 + x_10_43
   + x_10_44 + x_10_45 + x_10_46 + x_10_47 + x_10_48 = 0
 c_2_11: - 2 y_11 + x_1_11 + x_2_11 + x_4_11 + x_5_11 + x_6_11 + x_8_11
   + x_9_11 + x_11_12 + x_11_13 + x_11_14 + x_11_15 + x_11_16 + x_11_18
   + x_11_20 + x_11_21 + x_11_22 + x_11_23 + x_11_26 + x_11_27 + x_11_29
   + x_11_30 + x_11_31 + x_11_33 + x_11_35 + x_11_36 + x_11_38 + x_11_39
   + x_11_40 + x_11_41 + x_11_45 + x_11_46 + x_11_47 + x_11_48 + x_11_49
   = 0
 c_2_12: - 2 y_12 + x_3_12 + x_4_12 + x_5_12 + x_6_12 + x_8_12 + x_10_12
   + x_11_12 + x_12_13 + x_12_15 + x_12_16 + x_12_17 + x_12_18 + x_12_21
   + x_12_22 + x_12_23 + x_12_24 + x_12_25 + x_12_26 + x_12_27 + x_12_28
   + x_12_29 + x_12_30 + x_12_32 + x_12_33 + x_12_36 + x_12_37 + x_12_38
   + x_12_39 + x_12_40 + x_12_41 + x_12_42 + x_12_43 + x_12_44 + x_12_45
   + x_12_46 + x_12_47 + x_12_48 + x_12_49 = 0
 c_2_13: - 2 y_13 + x_0_13 + x_2_13 + x_3_13 + x_4_13 + x_5_13 + x_7_13
   + x_8_13 + x_11_13 + x_12_13 + x_13_14 + x_13_15 + x_13_17 + x_13_18
   + x_13_19 + x_13_21 + x_13_22 + x_13_23 + x_13_24 + x_13_25 + x_13_26
   + x_13_27 + x_13_28 + x_13_29 + x_13_30 + x_13_31 + x_13_32 + x_13_33
   + x_13_34 + x_13_35 + x_13_37 + x_13_39 + x_13_42 + x_13_44 + x_13_49
   = 0
 c_2_14: - 2 y_14 + x_1_14 + x_2_14 + x_3_14 + x_4_14 + x_5_14 + x_6_14
   + x_8_14 + x_9_14 + x_10_14 + x_11_14 + x_13_14 + x_14_15 + x_14_16
   + x_14_17 + x_14_18 + x_14_19 + x_14_21 + x_14_22 + x_14_23 + x_14_24
   + x_14_25 + x_14_27 + x_14_28 + x_14_29 + x_14_31 + x_14_32 + x_14_33
   + x_14_34 + x_14_35 + x_14_36 + x_14_38 + x_14_39 + x_14_40 + x_14_42
   + x_14_43 + x_14_44 + x_14_45 + x_14_46 + x_14_47 = 0
 c_2_15: - 2 y_15 + x_0_15 + x_1_15 + x_2_15 + x_5_15 + x_7_15 + x_9_15
   + x_10_15 + x_11_15 + x_12_15 + x_13_15 + x_14_15 + x_15_16 + x_15_17
   + x_15_18 + x_15_20 + x_15_24 + x_15_26 + x_15_28 + x_15_29 + x_15_30
   + x_15_31 + x_15_32 + x_15_34 + x_15_35 + x_15_36 + x_15_37 + x_15_38
   + x_15_39 + x_15_42 + x_15_44 + x_15_45 + x_15_46 + x_15_47 + x_15_48
   + x_15_49 = 0
 c_2_16: - 2 y_16 + x_2_16 + x_3_16 + x_4_16 + x_5_16 + x_6_16 + x_7_16
   + x_8_16 + x_10_16 + x_11_16 + x_12_16 + x_14_16 + x_15_16 + x_16_17
   + x_16_19 + x_16_20 + x_16_21 + x_16_23 + x_16_26 + x_16_27 + x_16_29
   + x_16_30 + x_16_31 + x_16_32 + x_16_33 + x_16_34 + x_16_35 + x_16_38
   + x_16_39 + x_16_41 + x_16_42 + x_16_43 + x_16_44 + x_16_45 + x_16_46
   + x_16_48 + x_16_49 = 0
 c_2_17: - 2 y_17 + x_0_17 + x_1_17 + x_2_17 + x_3_17 + x_4_17 + x_6_17
   + x_8_17 + x_9_17 + x_10_17 + x_12_17 + x_13_17 + x_14_17 + x_15_17
   + x_16_17 + x_17_21 + x_17_22 + x_17_23 + x_17_27 + x_17_28 + x_17_30
   + x_17_31 + x_17_32 + x_17_33 + x_17_35 + x_17_36 + x_17_38 + x_17_39
   + x_17_40 + x_17_41 + x_17_42 + x_17_43 + x_17_44 + x_17_45 + x_17_46
   + x_17_47 + x_17_48 + x_17_49 = 0
 c_2_18: - 2 y_18 + x_0_18 + x_1_18 + x_2_18 + x_3_18 + x_5_18 + x_6_18
   + x_8_18 + x_10_18 + x_11_18 + x_12_18 + x_13_18 + x_14_18 + x_15_18
   + x_18_19 + x_18_20 + x_18_21 + x_18_23 + x_18_25 + x_18_27 + x_18_28
   + x_18_29 + x_18_30 + x_18_31 + x_18_33 + x_18_34 + x_18_36 + x_18_37
   + x_18_38 + x_18_40 + x_18_41 + x_18_42 + x_18_45 + x_18_46 = 0
 c_2_19: - 2 y_19 + x_0_19 + x_1_19 + x_2_19 + x_3_19 + x_5_19 + x_6_19
   + x_8_19 + x_9_19 + x_10_19 + x_13_19 + x_14_19 + x_16_19 + x_18_19
   + x_19_20 + x_19_23 + x_19_25 + x_19_26 + x_19_29 + x_19_30 + x_19_31
   + x_19_32 + x_19_33 + x_19_34 + x_19_36 + x_19_37 + x_19_38 + x_19_39
   + x_19_42 + x_19_43 + x_19_44 + x_19_45 + x_19_49 = 0
 c_2_20: - 2 y_20 + x_0_20 + x_3_20 + x_4_20 + x_5_20 + x_8_20 + x_9_20
   + x_10_20 + x_11_20 + x_15_20 + x_16_20 + x_18_20 + x_19_20 + x_20_24
   + x_20_25 + x_20_27 + x_20_31 + x_20_32 + x_20_33 + x_20_34 + x_20_36
   + x_20_40 + x_20_41 + x_20_43 + x_20_44 + x_20_48 = 0
 c_2_21: - 2 y_21 + x_0_21 + x_2_21 + x_4_21 + x_6_21 + x_7_21 + x_8_21
   + x_10_21 + x_11_21 + x_12_21 + x_13_21 + x_14_21 + x_16_21 + x_17_21
   + x_18_21 + x_21_24 + x_21_26 + x_21_27 + x_21_28 + x_21_29 + x_21_31
   + x_21_34 + x_21_35 + x_21_36 + x_21_37 + x_21_38 + x_21_39 + x_21_40
   + x_21_41 + x_21_42 + x_21_43 + x_21_44 + x_21_45 + x_21_46 + x_21_47
   + x_21_48 + x_21_49 = 0
 c_2_22: - 2 y_22 + x_0_22 + x_4_22 + x_5_22 + x_6_22 + x_7_22 + x_8_22
   + x_11_22 + x_12_22 + x_13_22 + x_14_22 + x_17_22 + x_22_23 + x_22_24
   + x_22_26 + x_22_27 + x_22_28 + x_22_29 + x_22_32 + x_22_33 + x_22_34
   + x_22_35 + x_22_41 + x_22_42 + x_22_43 + x_22_44 + x_22_45 + x_22_47
   + x_22_48 + x_22_49 + x_46_22 = 0
 c_2_23: - 2 y_23 + x_0_23 + x_1_23 + x_2_23 + x_3_23 + x_4_23 + x_5_23
   + x_6_23 + x_9_23 + x_10_23 + x_11_23 + x_12_23 + x_13_23 + x_14_23
   + x_16_23 + x_17_23 + x_18_23 + x_19_23 + x_22_23 + x_23_24 + x_23_26
   + x_23_27 + x_23_29 + x_23_30 + x_23_31 + x_23_32 + x_23_33 + x_23_35
   + x_23_36 + x_23_38 + x_23_39 + x_23_40 + x_23_42 + x_23_45 + x_23_46
   + x_23_47 + x_23_48 + x_23_49 = 0
 c_2_24: - 2 y_24 + x_0_24 + x_2_24 + x_3_24 + x_4_24 + x_5_24 + x_7_24
   + x_8_24 + x_9_24 + x_10_24 + x_12_24 + x_13_24 + x_14_24 + x_15_24
   + x_20_24 + x_21_24 + x_22_24 + x_23_24 + x_24_25 + x_24_27 + x_24_28
   + x_24_29 + x_24_31 + x_24_33 + x_24_34 + x_24_35 + x_24_36 + x_24_37
   + x_24_38 + x_24_39 + x_24_40 + x_24_42 + x_24_43 + x_24_45 + x_24_47
   + x_24_49 = 0
 c_2_25: - 2 y_25 + x_2_25 + x_3_25 + x_4_25 + x_6_25 + x_8_25 + x_9_25
   + x_10_25 + x_12_25 + x_13_25 + x_14_25 + x_18_25 + x_19_25 + x_20_25
   + x_24_25 + x_25_28 + x_25_29 + x_25_30 + x_25_31 + x_25_32 + x_25_34
   + x_25_35 + x_25_36 + x_25_37 + x_25_39 + x_25_41 + x_25_42 + x_25_43
   + x_25_44 + x_25_45 + x_25_46 + x_25_47 + x_25_48 + x_25_49 = 0
 c_2_26: - 2 y_26 + x_0_26 + x_3_26 + x_4_26 + x_5_26 + x_7_26 + x_9_26
   + x_10_26 + x_11_26 + x_12_26 + x_13_26 + x_15_26 + x_16_26 + x_19_26
   + x_21_26 + x_22_26 + x_23_26 + x_26_27 + x_26_28 + x_26_31 + x_26_32
   + x_26_35 + x_26_36 + x_26_37 + x_26_38 + x_26_39 + x_26_41 + x_26_43
   + x_26_45 + x_26_47 + x_26_49 = 0
 c_2_27: - 2 y_27 + x_0_27 + x_1_27 + x_2_27 + x_4_27 + x_5_27 + x_6_27
   + x_7_27 + x_8_27 + x_11_27 + x_12_27 + x_13_27 + x_14_27 + x_16_27
   + x_17_27 + x_18_27 + x_20_27 + x_21_27 + x_22_27 + x_23_27 + x_24_27
   + x_26_27 + x_27_28 + x_27_30 + x_27_32 + x_27_34 + x_27_35 + x_27_37
   + x_27_38 + x_27_39 + x_27_42 + x_27_43 + x_27_45 + x_27_46 + x_27_47
   + x_27_48 + x_27_49 = 0
 c_2_28: - 2 y_28 + x_1_28 + x_2_28 + x_3_28 + x_4_28 + x_5_28 + x_6_28
   + x_7_28 + x_8_28 + x_9_28 + x_12_28 + x_13_28 + x_14_28 + x_15_28
   + x_17_28 + x_18_28 + x_21_28 + x_22_28 + x_24_28 + x_25_28 + x_26_28
   + x_27_28 + x_28_29 + x_28_30 + x_28_32 + x_28_33 + x_28_34 + x_28_35
   + x_28_36 + x_28_38 + x_28_39 + x_28_40 + x_28_42 + x_28_43 + x_28_44
   + x_28_45 + x_28_47 + x_28_48 + x_28_49 = 0
 c_2_29: - 2 y_29 + x_1_29 + x_2_29 + x_3_29 + x_6_29 + x_7_29 + x_8_29
   + x_9_29 + x_11_29 + x_12_29 + x_13_29 + x_14_29 + x_15_29 + x_16_29
   + x_18_29 + x_19_29 + x_21_29 + x_22_29 + x_23_29 + x_24_29 + x_25_29
   + x_28_29 + x_29_30 + x_29_31 + x_29_32 + x_29_33 + x_29_34 + x_29_36
   + x_29_37 + x_29_38 + x_29_39 + x_29_41 + x_29_42 + x_29_44 + x_29_45
   + x_29_46 + x_29_47 + x_29_48 + x_29_49 = 0
 c_2_30: - 2 y_30 + x_1_30 + x_3_30 + x_6_30 + x_7_30 + x_8_30 + x_9_30
   + x_10_30 + x_11_30 + x_12_30 + x_13_30 + x_15_30 + x_16_30 + x_17_30
   + x_18_30 + x_19_30 + x_23_30 + x_25_30 + x_27_30 + x_28_30 + x_29_30
   + x_30_31 + x_30_32 + x_30_33 + x_30_35 + x_30_38 + x_30_39 + x_30_41
   + x_30_42 + x_30_43 + x_30_44 + x_30_45 + x_30_47 + x_30_48 = 0
 c_2_31: - 2 y_31 + x_0_31 + x_1_31 + x_2_31 + x_5_31 + x_6_31 + x_8_31
   + x_9_31 + x_10_31 + x_11_31 + x_13_31 + x_14_31 + x_15_31 + x_16_31
   + x_17_31 + x_18_31 + x_19_31 + x_20_31 + x_21_31 + x_23_31 + x_24_31
   + x_25_31 + x_26_31 + x_29_31 + x_30_31 + x_31_34 + x_31_35 + x_31_36
   + x_31_37 + x_31_39 + x_31_40 + x_31_43 + x_31_48 + x_31_49 = 0
 c_2_32: - 2 y_32 + x_0_32 + x_1_32 + x_2_32 + x_3_32 + x_4_32 + x_6_32
   + x_7_32 + x_8_32 + x_12_32 + x_13_32 + x_14_32 + x_15_32 + x_16_32
   + x_17_32 + x_19_32 + x_20_32 + x_22_32 + x_23_32 + x_25_32 + x_26_32
   + x_27_32 + x_28_32 + x_29_32 + x_30_32 + x_32_33 + x_32_34 + x_32_35
   + x_32_36 + x_32_37 + x_32_38 + x_32_41 + x_32_42 + x_32_43 + x_32_44
   + x_32_45 + x_32_47 + x_32_48 = 0
 c_2_33: - 2 y_33 + x_0_33 + x_1_33 + x_3_33 + x_5_33 + x_7_33 + x_9_33
   + x_11_33 + x_12_33 + x_13_33 + x_14_33 + x_16_33 + x_17_33 + x_18_33
   + x_19_33 + x_20_33 + x_22_33 + x_23_33 + x_24_33 + x_28_33 + x_29_33
   + x_30_33 + x_32_33 + x_33_34 + x_33_35 + x_33_36 + x_33_37 + x_33_38
   + x_33_39 + x_33_42 + x_33_44 + x_33_47 + x_33_48 + x_33_49 = 0
 c_2_34: - 2 y_34 + x_0_34 + x_2_34 + x_3_34 + x_4_34 + x_5_34 + x_6_34
   + x_7_34 + x_8_34 + x_10_34 + x_13_34 + x_14_34 + x_15_34 + x_16_34
   + x_18_34 + x_19_34 + x_20_34 + x_21_34 + x_22_34 + x_24_34 + x_25_34
   + x_27_34 + x_28_34 + x_29_34 + x_31_34 + x_32_34 + x_33_34 + x_34_35
   + x_34_36 + x_34_38 + x_34_39 + x_34_40 + x_34_41 + x_34_42 + x_34_43
   + x_34_44 + x_34_46 + x_34_48 + x_34_49 = 0
 c_2_35: - 2 y_35 + x_0_35 + x_1_35 + x_4_35 + x_6_35 + x_7_35 + x_8_35
   + x_10_35 + x_11_35 + x_13_35 + x_14_35 + x_15_35 + x_16_35 + x_17_35
   + x_21_35 + x_22_35 + x_23_35 + x_24_35 + x_25_35 + x_26_35 + x_27_35
   + x_28_35 + x_30_35 + x_31_35 + x_32_35 + x_33_35 + x_34_35 + x_35_36
   + x_35_38 + x_35_39 + x_35_40 + x_35_41 + x_35_43 + x_35_44 + x_35_45
   + x_35_46 + x_35_47 = 0
 c_2_36: - 2 y_36 + x_1_36 + x_4_36 + x_5_36 + x_6_36 + x_9_36 + x_10_36
   + x_11_36 + x_12_36 + x_14_36 + x_15_36 + x_17_36 + x_18_36 + x_19_36
   + x_20_36 + x_21_36 + x_23_36 + x_24_36 + x_25_36 + x_26_36 + x_28_36
   + x_29_36 + x_31_36 + x_32_36 + x_33_36 + x_34_36 + x_35_36 + x_36_40
   + x_36_41 + x_36_42 + x_36_43 + x_36_44 + x_36_47 + x_36_48 + x_36_49
   = 0
 c_2_37: - 2 y_37 + x_0_37 + x_1_37 + x_3_37 + x_4_37 + x_7_37 + x_8_37
   + x_9_37 + x_12_37 + x_13_37 + x_15_37 + x_18_37 + x_19_37 + x_21_37
   + x_24_37 + x_25_37 + x_26_37 + x_27_37 + x_29_37 + x_31_37 + x_32_37
   + x_33_37 + x_37_38 + x_37_39 + x_37_41 + x_37_42 + x_37_43 + x_37_44
   + x_37_45 + x_37_46 + x_37_47 + x_37_48 + x_37_49 = 0
 c_2_38: - 2 y_38 + x_0_38 + x_2_38 + x_3_38 + x_4_38 + x_5_38 + x_6_38
   + x_8_38 + x_9_38 + x_10_38 + x_11_38 + x_12_38 + x_14_38 + x_15_38
   + x_16_38 + x_17_38 + x_18_38 + x_19_38 + x_21_38 + x_23_38 + x_24_38
   + x_26_38 + x_27_38 + x_28_38 + x_29_38 + x_30_38 + x_32_38 + x_33_38
   + x_34_38 + x_35_38 + x_37_38 + x_38_39 + x_38_43 + x_38_44 + x_38_45
   + x_38_46 + x_38_47 + x_38_49 = 0
 c_2_39: - 2 y_39 + x_0_39 + x_3_39 + x_4_39 + x_5_39 + x_7_39 + x_8_39
   + x_9_39 + x_11_39 + x_12_39 + x_13_39 + x_14_39 + x_15_39 + x_16_39
   + x_17_39 + x_19_39 + x_21_39 + x_23_39 + x_24_39 + x_25_39 + x_26_39
   + x_27_39 + x_28_39 + x_29_39 + x_30_39 + x_31_39 + x_33_39 + x_34_39
   + x_35_39 + x_37_39 + x_38_39 + x_39_41 + x_39_42 + x_39_44 + x_39_45
   + x_39_49 = 0
 c_2_40: - 2 y_40 + x_1_40 + x_3_40 + x_4_40 + x_5_40 + x_7_40 + x_8_40
   + x_9_40 + x_10_40 + x_11_40 + x_12_40 + x_14_40 + x_17_40 + x_18_40
   + x_20_40 + x_21_40 + x_23_40 + x_24_40 + x_28_40 + x_31_40 + x_34_40
   + x_35_40 + x_36_40 + x_40_41 + x_40_42 + x_40_43 + x_40_44 + x_40_45
   + x_40_48 + x_40_49 = 0
 c_2_41: - 2 y_41 + x_1_41 + x_2_41 + x_3_41 + x_5_41 + x_7_41 + x_8_41
   + x_9_41 + x_11_41 + x_12_41 + x_16_41 + x_17_41 + x_18_41 + x_20_41
   + x_21_41 + x_22_41 + x_25_41 + x_26_41 + x_29_41 + x_30_41 + x_32_41
   + x_34_41 + x_35_41 + x_36_41 + x_37_41 + x_39_41 + x_40_41 + x_41_42
   + x_41_43 + x_41_44 + x_41_47 + x_41_48 = 0
 c_2_42: - 2 y_42 + x_0_42 + x_2_42 + x_3_42 + x_4_42 + x_5_42 + x_6_42
   + x_7_42 + x_8_42 + x_10_42 + x_12_42 + x_13_42 + x_14_42 + x_15_42
   + x_16_42 + x_17_42 + x_18_42 + x_19_42 + x_21_42 + x_22_42 + x_23_42
   + x_24_42 + x_25_42 + x_27_42 + x_28_42 + x_29_42 + x_30_42 + x_32_42
   + x_33_42 + x_34_42 + x_36_42 + x_37_42 + x_39_42 + x_40_42 + x_41_42
   + x_42_43 + x_42_45 + x_42_46 + x_42_47 + x_42_49 = 0
 c_2_43: - 2 y_43 + x_1_43 + x_3_43 + x_4_43 + x_5_43 + x_6_43 + x_8_43
   + x_9_43 + x_10_43 + x_12_43 + x_14_43 + x_16_43 + x_17_43 + x_19_43
   + x_20_43 + x_21_43 + x_22_43 + x_24_43 + x_25_43 + x_26_43 + x_27_43
   + x_28_43 + x_30_43 + x_31_43 + x_32_43 + x_34_43 + x_35_43 + x_36_43
   + x_37_43 + x_38_43 + x_40_43 + x_41_43 + x_42_43 + x_43_44 + x_43_45
   + x_43_46 + x_43_47 = 0
 c_2_44: - 2 y_44 + x_1_44 + x_2_44 + x_3_44 + x_4_44 + x_5_44 + x_6_44
   + x_7_44 + x_8_44 + x_10_44 + x_12_44 + x_13_44 + x_14_44 + x_15_44
   + x_16_44 + x_17_44 + x_19_44 + x_20_44 + x_21_44 + x_22_44 + x_25_44
   + x_28_44 + x_29_44 + x_30_44 + x_32_44 + x_33_44 + x_34_44 + x_35_44
   + x_36_44 + x_37_44 + x_38_44 + x_39_44 + x_40_44 + x_41_44 + x_43_44
   + x_44_45 + x_44_46 + x_44_47 + x_44_48 + x_44_49 = 0
 c_2_45: - 2 y_45 + x_1_45 + x_2_45 + x_4_45 + x_5_45 + x_6_45 + x_8_45
   + x_9_45 + x_10_45 + x_11_45 + x_12_45 + x_14_45 + x_15_45 + x_16_45
   + x_17_45 + x_18_45 + x_19_45 + x_21_45 + x_22_45 + x_23_45 + x_24_45
   + x_25_45 + x_26_45 + x_27_45 + x_28_45 + x_29_45 + x_30_45 + x_32_45
   + x_35_45 + x_37_45 + x_38_45 + x_39_45 + x_40_45 + x_42_45 + x_43_45
   + x_44_45 + x_45_47 + x_45_48 + x_45_49 = 0
 c_2_46: - 2 y_46 + x_0_46 + x_1_46 + x_3_46 + x_4_46 + x_5_46 + x_6_46
   + x_7_46 + x_9_46 + x_10_46 + x_11_46 + x_12_46 + x_14_46 + x_15_46
   + x_16_46 + x_17_46 + x_18_46 + x_21_46 + x_23_46 + x_25_46 + x_27_46
   + x_29_46 + x_34_46 + x_35_46 + x_37_46 + x_38_46 + x_42_46 + x_43_46
   + x_44_46 + x_46_22 + x_46_48 + x_46_49 = 0
 c_2_47: - 2 y_47 + x_2_47 + x_5_47 + x_6_47 + x_7_47 + x_8_47 + x_10_47
   + x_11_47 + x_12_47 + x_14_47 + x_15_47 + x_17_47 + x_21_47 + x_22_47
   + x_23_47 + x_24_47 + x_25_47 + x_26_47 + x_27_47 + x_28_47 + x_29_47
   + x_30_47 + x_32_47 + x_33_47 + x_35_47 + x_36_47 + x_37_47 + x_38_47
   + x_41_47 + x_42_47 + x_43_47 + x_44_47 + x_45_47 + x_47_48 + x_47_49
   = 0
 c_2_48: - 2 y_48 + x_0_48 + x_2_48 + x_3_48 + x_4_48 + x_5_48 + x_6_48
   + x_7_48 + x_8_48 + x_9_48 + x_10_48 + x_11_48 + x_12_48 + x_15_48
   + x_16_48 + x_17_48 + x_20_48 + x_21_48 + x_22_48 + x_23_48 + x_25_48
   + x_27_48 + x_28_48 + x_29_48 + x_30_48 + x_31_48 + x_32_48 + x_33_48
   + x_34_48 + x_36_48 + x_37_48 + x_40_48 + x_41_48 + x_44_48 + x_45_48
   + x_46_48 + x_47_48 = 0
 c_2_49: - 2 y_49 + x_2_49 + x_3_49 + x_4_49 + x_6_49 + x_7_49 + x_8_49
   + x_9_49 + x_11_49 + x_12_49 + x_13_49 + x_15_49 + x_16_49 + x_17_49
   + x_19_49 + x_21_49 + x_22_49 + x_23_49 + x_24_49 + x_25_49 + x_26_49
   + x_27_49 + x_28_49 + x_29_49 + x_31_49 + x_33_49 + x_34_49 + x_36_49
   + x_37_49 + x_38_49 + x_39_49 + x_40_49 + x_42_49 + x_44_49 + x_45_49
   + x_46_49 + x_47_49 = 0
Bounds
 Constant = 1
Binaries
 y_0 y_1 y_2 y_3 y_4 y_5 y_6 y_7 y_8 y_9 y_10 y_11 y_12 y_13 y_14 y_15 y_16
 y_17 y_18 y_19 y_20 y_21 y_22 y_23 y_24 y_25 y_26 y_27 y_28 y_29 y_30 y_31
 y_32 y_33 y_34 y_35 y_36 y_37 y_38 y_39 y_40 y_41 y_42 y_43 y_44 y_45 y_46
 y_47 y_48 y_49 x_0_2 x_0_3 x_0_5 x_0_7 x_0_9 x_0_13 x_0_15 x_0_17 x_0_18
 x_0_19 x_0_20 x_0_21 x_0_22 x_0_23 x_0_24 x_0_26 x_0_27 x_0_31 x_0_32
 x_0_33 x_0_34 x_0_35 x_0_37 x_0_38 x_0_39 x_0_42 x_0_46 x_0_48 x_1_2 x_1_3
 x_1_4 x_1_5 x_1_7 x_1_11 x_1_14 x_1_15 x_1_17 x_1_18 x_1_19 x_1_23 x_1_27
 x_1_28 x_1_29 x_1_30 x_1_31 x_1_32 x_1_33 x_1_35 x_1_36 x_1_37 x_1_40
 x_1_41 x_1_43 x_1_44 x_1_45 x_1_46 x_2_3 x_2_4 x_2_6 x_2_8 x_2_9 x_2_10
 x_2_11 x_2_13 x_2_14 x_2_15 x_2_16 x_2_17 x_2_18 x_2_19 x_2_21 x_2_23
 x_2_24 x_2_25 x_2_27 x_2_28 x_2_29 x_2_31 x_2_32 x_2_34 x_2_38 x_2_41
 x_2_42 x_2_44 x_2_45 x_2_47 x_2_48 x_2_49 x_3_4 x_3_7 x_3_9 x_3_10 x_3_12
 x_3_13 x_3_14 x_3_16 x_3_17 x_3_18 x_3_19 x_3_20 x_3_23 x_3_24 x_3_25
 x_3_26 x_3_28 x_3_29 x_3_30 x_3_32 x_3_33 x_3_34 x_3_37 x_3_38 x_3_39
 x_3_40 x_3_41 x_3_42 x_3_43 x_3_44 x_3_46 x_3_48 x_3_49 x_4_5 x_4_6 x_4_11
 x_4_12 x_4_13 x_4_14 x_4_16 x_4_17 x_4_20 x_4_21 x_4_22 x_4_23 x_4_24
 x_4_25 x_4_26 x_4_27 x_4_28 x_4_32 x_4_34 x_4_35 x_4_36 x_4_37 x_4_38
 x_4_39 x_4_40 x_4_42 x_4_43 x_4_44 x_4_45 x_4_46 x_4_48 x_4_49 x_5_6 x_5_8
 x_5_9 x_5_11 x_5_12 x_5_13 x_5_14 x_5_15 x_5_16 x_5_18 x_5_19 x_5_20
 x_5_22 x_5_23 x_5_24 x_5_26 x_5_27 x_5_28 x_5_31 x_5_33 x_5_34 x_5_36
 x_5_38 x_5_39 x_5_40 x_5_41 x_5_42 x_5_43 x_5_44 x_5_45 x_5_46 x_5_47
 x_5_48 x_6_8 x_6_9 x_6_11 x_6_12 x_6_14 x_6_16 x_6_17 x_6_18 x_6_19 x_6_21
 x_6_22 x_6_23 x_6_25 x_6_27 x_6_28 x_6_29 x_6_30 x_6_31 x_6_32 x_6_34
 x_6_35 x_6_36 x_6_38 x_6_42 x_6_43 x_6_44 x_6_45 x_6_46 x_6_47 x_6_48
 x_6_49 x_7_10 x_7_13 x_7_15 x_7_16 x_7_21 x_7_22 x_7_24 x_7_26 x_7_27
 x_7_28 x_7_29 x_7_30 x_7_32 x_7_33 x_7_34 x_7_35 x_7_37 x_7_39 x_7_40
 x_7_41 x_7_42 x_7_44 x_7_46 x_7_47 x_7_48 x_7_49 x_8_9 x_8_10 x_8_11
 x_8_12 x_8_13 x_8_14 x_8_16 x_8_17 x_8_18 x_8_19 x_8_20 x_8_21 x_8_22
 x_8_24 x_8_25 x_8_27 x_8_28 x_8_29 x_8_30 x_8_31 x_8_32 x_8_34 x_8_35
 x_8_37 x_8_38 x_8_39 x_8_40 x_8_41 x_8_42 x_8_43 x_8_44 x_8_45 x_8_47
 x_8_48 x_8_49 x_9_10 x_9_11 x_9_14 x_9_15 x_9_17 x_9_19 x_9_20 x_9_23
 x_9_24 x_9_25 x_9_26 x_9_28 x_9_29 x_9_30 x_9_31 x_9_33 x_9_36 x_9_37
 x_9_38 x_9_39 x_9_40 x_9_41 x_9_43 x_9_45 x_9_46 x_9_48 x_9_49 x_10_12
 x_10_14 x_10_15 x_10_16 x_10_17 x_10_18 x_10_19 x_10_20 x_10_21 x_10_23
 x_10_24 x_10_25 x_10_26 x_10_30 x_10_31 x_10_34 x_10_35 x_10_36 x_10_38
 x_10_40 x_10_42 x_10_43 x_10_44 x_10_45 x_10_46 x_10_47 x_10_48 x_11_12
 x_11_13 x_11_14 x_11_15 x_11_16 x_11_18 x_11_20 x_11_21 x_11_22 x_11_23
 x_11_26 x_11_27 x_11_29 x_11_30 x_11_31 x_11_33 x_11_35 x_11_36 x_11_38
 x_11_39 x_11_40 x_11_41 x_11_45 x_11_46 x_11_47 x_11_48 x_11_49 x_12_13
 x_12_15 x_12_16 x_12_17 x_12_18 x_12_21 x_12_22 x_12_23 x_12_24 x_12_25
 x_12_26 x_12_27 x_12_28 x_12_29 x_12_30 x_12_32 x_12_33 x_12_36 x_12_37
 x_12_38 x_12_39 x_12_40 x_12_41 x_12_42 x_12_43 x_12_44 x_12_45 x_12_46
 x_12_47 x_12_48 x_12_49 x_13_14 x_13_15 x_13_17 x_13_18 x_13_19 x_13_21
 x_13_22 x_13_23 x_13_24 x_13_25 x_13_26 x_13_27 x_13_28 x_13_29 x_13_30
 x_13_31 x_13_32 x_13_33 x_13_34 x_13_35 x_13_37 x_13_39 x_13_42 x_13_44
 x_13_49 x_14_15 x_14_16 x_14_17 x_14_18 x_14_19 x_14_21 x_14_22 x_14_23
 x_14_24 x_14_25 x_14_27 x_14_28 x_14_29 x_14_31 x_14_32 x_14_33 x_14_34
 x_14_35 x_14_36 x_14_38 x_14_39 x_14_40 x_14_42 x_14_43 x_14_44 x_14_45
 x_14_46 x_14_47 x_15_16 x_15_17 x_15_18 x_15_20 x_15_24 x_15_26 x_15_28
 x_15_29 x_15_30 x_15_31 x_15_32 x_15_34 x_15_35 x_15_36 x_15_37 x_15_38
 x_15_39 x_15_42 x_15_44 x_15_45 x_15_46 x_15_47 x_15_48 x_15_49 x_16_17
 x_16_19 x_16_20 x_16_21 x_16_23 x_16_26 x_16_27 x_16_29 x_16_30 x_16_31
 x_16_32 x_16_33 x_16_34 x_16_35 x_16_38 x_16_39 x_16_41 x_16_42 x_16_43
 x_16_44 x_16_45 x_16_46 x_16_48 x_16_49 x_17_21 x_17_22 x_17_23 x_17_27
 x_17_28 x_17_30 x_17_31 x_17_32 x_17_33 x_17_35 x_17_36 x_17_38 x_17_39
 x_17_40 x_17_41 x_17_42 x_17_43 x_17_44 x_17_45 x_17_46 x_17_47 x_17_48
 x_17_49 x_18_19 x_18_20 x_18_21 x_18_23 x_18_25 x_18_27 x_18_28 x_18_29
 x_18_30 x_18_31 x_18_33 x_18_34 x_18_36 x_18_37 x_18_38 x_18_40 x_18_41
 x_18_42 x_18_45 x_18_46 x_19_20 x_19_23 x_19_25 x_19_26 x_19_29 x_19_30
 x_19_31 x_19_32 x_19_33 x_19_34 x_19_36 x_19_37 x_19_38 x_19_39 x_19_42
 x_19_43 x_19_44 x_19_45 x_19_49 x_20_24 x_20_25 x_20_27 x_20_31 x_20_32
 x_20_33 x_20_34 x_20_36 x_20_40 x_20_41 x_20_43 x_20_44 x_20_48 x_21_24
 x_21_26 x_21_27 x_21_28 x_21_29 x_21_31 x_21_34 x_21_35 x_21_36 x_21_37
 x_21_38 x_21_39 x_21_40 x_21_41 x_21_42 x_21_43 x_21_44 x_21_45 x_21_46
 x_21_47 x_21_48 x_21_49 x_22_23 x_22_24 x_22_26 x_22_27 x_22_28 x_22_29
 x_22_32 x_22_33 x_22_34 x_22_35 x_22_41 x_22_42 x_22_43 x_22_44 x_22_45
 x_22_47 x_22_48 x_22_49 x_23_24 x_23_26 x_23_27 x_23_29 x_23_30 x_23_31
 x_23_32 x_23_33 x_23_35 x_23_36 x_23_38 x_23_39 x_23_40 x_23_42 x_23_45
 x_23_46 x_23_47 x_23_48 x_23_49 x_24_25 x_24_27 x_24_28 x_24_29 x_24_31
 x_24_33 x_24_34 x_24_35 x_24_36 x_24_37 x_24_38 x_24_39 x_24_40 x_24_42
 x_24_43 x_24_45 x_24_47 x_24_49 x_25_28 x_25_29 x_25_30 x_25_31 x_25_32
 x_25_34 x_25_35 x_25_36 x_25_37 x_25_39 x_25_41 x_25_42 x_25_43 x_25_44
 x_25_45 x_25_46 x_25_47 x_25_48 x_25_49 x_26_27 x_26_28 x_26_31 x_26_32
 x_26_35 x_26_36 x_26_37 x_26_38 x_26_39 x_26_41 x_26_43 x_26_45 x_26_47
 x_26_49 x_27_28 x_27_30 x_27_32 x_27_34 x_27_35 x_27_37 x_27_38 x_27_39
 x_27_42 x_27_43 x_27_45 x_27_46 x_27_47 x_27_48 x_27_49 x_28_29 x_28_30
 x_28_32 x_28_33 x_28_34 x_28_35 x_28_36 x_28_38 x_28_39 x_28_40 x_28_42
 x_28_43 x_28_44 x_28_45 x_28_47 x_28_48 x_28_49 x_29_30 x_29_31 x_29_32
 x_29_33 x_29_34 x_29_36 x_29_37 x_29_38 x_29_39 x_29_41 x_29_42 x_29_44
 x_29_45 x_29_46 x_29_47 x_29_48 x_29_49 x_30_31 x_30_32 x_30_33 x_30_35
 x_30_38 x_30_39 x_30_41 x_30_42 x_30_43 x_30_44 x_30_45 x_30_47 x_30_48
 x_31_34 x_31_35 x_31_36 x_31_37 x_31_39 x_31_40 x_31_43 x_31_48 x_31_49
 x_32_33 x_32_34 x_32_35 x_32_36 x_32_37 x_32_38 x_32_41 x_32_42 x_32_43
 x_32_44 x_32_45 x_32_47 x_32_48 x_33_34 x_33_35 x_33_36 x_33_37 x_33_38
 x_33_39 x_33_42 x_33_44 x_33_47 x_33_48 x_33_49 x_34_35 x_34_36 x_34_38
 x_34_39 x_34_40 x_34_41 x_34_42 x_34_43 x_34_44 x_34_46 x_34_48 x_34_49
 x_35_36 x_35_38 x_35_39 x_35_40 x_35_41 x_35_43 x_35_44 x_35_45 x_35_46
 x_35_47 x_36_40 x_36_41 x_36_42 x_36_43 x_36_44 x_36_47 x_36_48 x_36_49
 x_37_38 x_37_39 x_37_41 x_37_42 x_37_43 x_37_44 x_37_45 x_37_46 x_37_47
 x_37_48 x_37_49 x_38_39 x_38_43 x_38_44 x_38_45 x_38_46 x_38_47 x_38_49
 x_39_41 x_39_42 x_39_44 x_39_45 x_39_49 x_40_41 x_40_42 x_40_43 x_40_44
 x_40_45 x_40_48 x_40_49 x_41_42 x_41_43 x_41_44 x_41_47 x_41_48 x_42_43
 x_42_45 x_42_46 x_42_47 x_42_49 x_43_44 x_43_45 x_43_46 x_43_47 x_44_45
 x_44_46 x_44_47 x_44_48 x_44_49 x_45_47 x_45_48 x_45_49 x_46_22 x_46_48
 x_46_49 x_47_48 x_47_49
End
